0 2232
1 2038
2 1926
3 1831
4 1789
5 1737
6 1670
7 1624
8 1568
9 1490
10 1466
11 1466
12 1440
13 1366
14 1353
15 1334
16 1293
17 1277
18 1274
19 1266
20 1266
21 1265
22 1265
23 1260
24 1229
25 1229
26 1212
27 1204
28 1199
29 1199
30 1193
31 1186
32 1186
33 1186
34 1185
35 1183
36 1178
37 1178
38 1178
39 1178
40 1178
41 1178
42 1178
43 1178
44 1178
45 1178
46 1175
47 1175
48 1175
49 1175
50 1175
51 1172
52 1168
53 1168
54 1168
55 1168
56 1168
57 1168
58 1168
59 1168
60 1168
61 1168
62 1166
63 1166
64 1166
65 1166
66 1166
67 1166
68 1166
69 1166
70 1162
71 1162
72 1162
73 1162
74 1162
75 1162
76 1162
77 1162
78 1162
79 1162
80 1162
81 1161
82 1161
83 1161
84 1161
85 1153
86 1153
87 1153
88 1149
89 1149
90 1146
91 1146
92 1146
93 1146
94 1146
95 1146
96 1146
97 1138
98 1138
99 1099
100 1099
101 1083
102 1083
103 1083
104 1078
105 1078
106 1078
107 1078
108 1078
109 1078
110 1076
111 1076
112 1076
113 1076
114 1076
115 1071
116 1070
117 1070
118 1070
119 1070
120 1070
121 1070
122 1070
123 1070
124 1070
125 1070
126 1070
127 1070
128 1070
129 1070
130 1070
131 1070
132 1070
133 1070
134 1070
135 1070
136 1070
137 1070
138 1070
139 1070
140 1070
141 1070
142 1070
143 1070
144 1070
145 1070
146 1070
147 1070
148 1070
149 1070
150 1070
151 1070
152 1070
153 1070
154 1070
155 1070
156 1070
157 1070
158 1070
159 1070
160 1070
161 1070
162 1070
163 1070
164 1070
165 1070
166 1070
167 1070
168 1070
169 1070
170 1070
171 1070
172 1070
173 1070
174 1070
175 1070
176 1070
177 1070
178 1070
179 1070
180 1070
181 1070
182 1070
183 1070
184 1070
185 1070
186 1070
187 1070
188 1070
189 1070
190 1070
191 1070
192 1070
193 1070
194 1070
195 1070
196 1070
197 1070
198 1070
199 1070
200 1070
201 1070
202 1070
203 1070
204 1070
205 1070
206 1070
207 1070
208 1070
209 1070
210 1070
211 1070
212 1070
213 1070
214 1070
215 1070
216 1070
217 1070
218 1070
219 1070
220 1070
221 1070
222 1070
223 1070
224 1070
225 1070
226 1070
227 1070
228 1070
229 1070
230 1070
231 1070
232 1070
233 1070
234 1070
235 1070
236 1070
237 1070
238 1070
239 1070
240 1070
241 1070
242 1070
243 1070
244 1070
245 1070
246 1070
247 1070
248 1070
249 1070
250 1070
251 1070
252 1070
253 1070
254 1070
255 1070
256 1070
257 1070
258 1070
259 1070
260 1070
261 1070
262 1070
263 1070
264 1070
265 1070
266 1070
267 1070
268 1070
269 1070
270 1070
271 1070
272 1070
273 1070
274 1070
275 1070
276 1070
277 1070
278 1070
279 1070
280 1070
281 1070
282 1070
283 1070
284 1070
285 1070
286 1070
287 1070
288 1070
289 1070
290 1070
291 1070
292 1070
293 1070
294 1070
295 1070
296 1070
297 1070
298 1070
299 1070
300 1070
301 1070
302 1070
303 1070
304 1070
305 1070
306 1070
307 1070
308 1070
309 1070
310 1070
311 1070
312 1070
313 1070
314 1070
315 1070
316 1070
317 1070
318 1070
319 1070
320 1070
321 1070
322 1070
323 1070
324 1070
325 1070
326 1070
327 1070
328 1070
329 1070
330 1070
331 1070
332 1070
333 1070
334 1070
335 1070
336 1070
337 1070
338 1070
339 1070
340 1070
341 1070
342 1070
343 1070
344 1070
345 1070
346 1070
347 1070
348 1070
349 1070
350 1070
351 1070
352 1070
353 1070
354 1070
355 1070
356 1070
357 1070
358 1070
359 1070
360 1070
361 1070
362 1070
363 1070
364 1070
365 1070
366 1070
367 1070
368 1070
369 1070
370 1070
371 1070
372 1070
373 1070
374 1070
375 1070
376 1070
377 1070
378 1070
379 1070
380 1070
381 1070
382 1070
383 1070
384 1070
385 1070
386 1070
387 1070
388 1070
389 1070
390 1070
391 1070
392 1070
393 1070
394 1070
395 1070
396 1070
397 1070
398 1070
399 1070
400 1070
401 1070
402 1070
403 1070
404 1070
405 1070
406 1070
407 1070
408 1070
409 1070
410 1070
411 1070
412 1070
413 1070
414 1070
415 1070
416 1070
417 1070
418 1070
419 1070
420 1070
421 1070
422 1070
423 1070
424 1070
425 1070
426 1070
427 1070
428 1070
429 1070
430 1070
431 1070
432 1070
433 1070
434 1070
435 1070
436 1070
437 1070
438 1070
439 1070
440 1070
441 1070
442 1070
443 1070
444 1070
445 1070
446 1070
447 1070
448 1070
449 1070
450 1070
451 1070
452 1070
453 1070
454 1070
455 1070
456 1070
457 1070
458 1070
459 1070
460 1070
461 1070
462 1070
463 1070
464 1070
465 1070
466 1070
467 1070
468 1070
469 1070
470 1070
471 1070
472 1070
473 1070
474 1070
475 1070
476 1070
477 1070
478 1070
479 1070
480 1070
481 1070
482 1070
483 1070
484 1070
485 1070
486 1070
487 1070
488 1070
489 1070
490 1070
491 1070
492 1070
493 1070
494 1070
495 1070
496 1070
497 1070
498 1070
499 1070
500 1070
501 1070
502 1070
503 1070
504 1070
505 1070
506 1070
507 1070
508 1070
509 1070
510 1070
511 1070
512 1070
513 1070
514 1070
515 1070
516 1070
517 1070
518 1070
519 1070
520 1070
521 1070
522 1070
523 1070
524 1070
525 1070
526 1070
527 1070
528 1070
529 1070
530 1070
531 1070
532 1070
533 1070
534 1070
535 1070
536 1070
537 1070
538 1070
539 1070
540 1070
541 1070
542 1070
543 1070
544 1070
545 1070
546 1070
547 1070
548 1070
549 1070
550 1070
551 1070
552 1070
553 1070
554 1070
555 1070
556 1070
557 1070
558 1070
559 1070
560 1070
561 1070
562 1070
563 1070
564 1070
565 1070
566 1070
567 1070
568 1070
569 1070
570 1070
571 1070
572 1070
573 1070
574 1070
575 1070
576 1070
577 1070
578 1070
579 1070
580 1070
581 1070
582 1070
583 1070
584 1070
585 1070
586 1070
587 1070
588 1070
589 1070
590 1070
591 1070
592 1070
593 1070
594 1070
595 1070
596 1070
597 1070
598 1070
599 1070
600 1070
601 1070
602 1070
603 1070
604 1070
605 1070
606 1070
607 1070
608 1070
609 1070
610 1070
611 1070
612 1070
613 1070
614 1070
615 1070
616 1070
617 1070
618 1070
619 1070
620 1070
621 1070
622 1070
623 1070
624 1070
625 1070
626 1070
627 1070
628 1070
629 1070
630 1070
631 1070
632 1070
633 1070
634 1070
635 1070
636 1070
637 1070
638 1070
639 1070
640 1070
641 1070
642 1070
643 1070
644 1070
645 1070
646 1070
647 1070
648 1070
649 1070
650 1070
651 1070
652 1070
653 1070
654 1070
655 1070
656 1070
657 1070
658 1070
659 1070
660 1070
661 1070
662 1070
663 1070
664 1070
665 1070
666 1070
667 1070
668 1070
669 1070
670 1070
671 1070
672 1070
673 1070
674 1070
675 1070
676 1070
677 1070
678 1070
679 1070
680 1070
681 1070
682 1070
683 1070
684 1070
685 1070
686 1070
687 1070
688 1070
689 1070
690 1070
691 1070
692 1070
693 1070
694 1070
695 1070
696 1070
697 1070
698 1070
699 1070
700 1070
701 1070
702 1070
703 1070
704 1070
705 1070
706 1070
707 1070
708 1070
709 1070
710 1070
711 1070
712 1070
713 1070
714 1070
715 1070
716 1070
717 1070
718 1070
719 1070
720 1070
721 1070
722 1070
723 1070
724 1070
725 1070
726 1070
727 1070
728 1070
729 1070
730 1070
731 1070
732 1070
733 1070
734 1070
735 1070
736 1070
737 1070
738 1070
739 1070
740 1070
741 1070
742 1070
743 1070
744 1070
745 1070
746 1070
747 1070
748 1070
749 1070
750 1070
751 1070
752 1070
753 1070
754 1070
755 1070
756 1070
757 1070
758 1070
759 1070
760 1070
761 1070
762 1070
763 1070
764 1070
765 1070
766 1070
767 1070
768 1070
769 1070
770 1070
771 1070
772 1070
773 1070
774 1070
775 1070
776 1070
777 1070
778 1070
779 1070
780 1070
781 1070
782 1070
783 1070
784 1070
785 1070
786 1070
787 1070
788 1070
789 1070
790 1070
791 1070
792 1070
793 1070
794 1070
795 1070
796 1070
797 1070
798 1070
799 1070
800 1070
801 1070
802 1070
803 1070
804 1070
805 1070
806 1070
807 1070
808 1070
809 1070
810 1070
811 1070
812 1070
813 1070
814 1070
815 1070
816 1070
817 1070
818 1070
819 1070
820 1070
821 1070
822 1070
823 1070
824 1070
825 1070
826 1070
827 1070
828 1070
829 1070
830 1070
831 1070
832 1070
833 1070
834 1070
835 1070
836 1070
837 1070
838 1070
839 1070
840 1070
841 1070
842 1070
843 1070
844 1070
845 1070
846 1070
847 1070
848 1070
849 1070
850 1070
851 1070
852 1070
853 1070
854 1070
855 1070
856 1070
857 1070
858 1070
859 1070
860 1070
861 1070
862 1070
863 1070
864 1070
865 1070
866 1070
867 1070
868 1070
869 1070
870 1070
871 1070
872 1070
873 1070
874 1070
875 1070
876 1070
877 1070
878 1070
879 1070
880 1070
881 1070
882 1070
883 1070
884 1070
885 1070
886 1070
887 1070
888 1070
889 1070
890 1070
891 1070
892 1070
893 1070
894 1070
895 1070
896 1070
897 1070
898 1070
899 1070
900 1070
901 1070
902 1070
903 1070
904 1070
905 1070
906 1070
907 1070
908 1070
909 1070
910 1070
911 1070
912 1070
913 1070
914 1070
915 1070
916 1070
917 1070
918 1070
919 1070
920 1070
921 1070
922 1070
923 1070
924 1070
925 1070
926 1070
927 1070
928 1070
929 1070
930 1070
931 1070
932 1070
933 1070
934 1070
935 1070
936 1070
937 1070
938 1070
939 1070
940 1070
941 1070
942 1070
943 1070
944 1070
945 1070
946 1070
947 1070
948 1070
949 1070
950 1070
951 1070
952 1070
953 1070
954 1070
955 1070
956 1070
957 1070
958 1070
959 1070
960 1070
961 1070
962 1070
963 1070
964 1070
965 1070
966 1070
967 1070
968 1070
969 1070
970 1070
971 1070
972 1070
973 1070
974 1070
975 1070
976 1070
977 1070
978 1070
979 1070
980 1070
981 1070
982 1070
983 1070
984 1070
985 1070
986 1070
987 1070
988 1070
989 1070
990 1070
991 1070
992 1070
993 1070
994 1070
995 1070
996 1070
997 1070
998 1070
999 1070
Best: [[25,15,19,9,12,10,23,16,11,30],
       [31,13,17,28,6,26],
       [27,8,14,22,32,20,4,24,7],
       [2,18,3,5,29,21]], fitness: 1070
